Maximize
  2.2526659736453721e-04 Z_483_0_0 + 0.00275386425120181 Z_483_0_1
   + 0.6930123700443027 Z_483_0_2 + 9.2006028167557544e-04 Z_483_0_3
   + 0.2030884388254554 Z_483_0_4 + 0.0241909985861479 Z_483_1_0
   + 0.0328228197981404 Z_483_1_1 + 0.0244048140227769 Z_483_1_2
   + 0.00910602522310956 Z_483_1_3 + 0.8094753423698253 Z_483_1_4
   + 0.642608626044741 Z_483_2_0 + 0.0986530755044122 Z_483_2_1
   + 0.0057203739411771 Z_483_2_2 + 0.0474035444533265 Z_483_2_3
   + 0.1056143800563432 Z_483_2_4 + 0.00330411174470767 Z_389_0_0
   + 0.00101269342323752 Z_389_0_1 + 0.00328701323651059 Z_389_0_2
   + 0.416135257119034 Z_389_0_3 + 0.4762609244765103 Z_389_0_4
   + 0.0033096990686374 Z_643_3_0 + 0.0648282671611155 Z_643_3_1
   + 8.6488953948546377e-04 Z_643_3_2 + 0.4377983723299422 Z_643_3_3
   + 0.3931987719008195 Z_643_3_4 + 0.0033096990686374 Z_643_4_0
   + 0.0648282671611155 Z_643_4_1 + 8.6488953948546377e-04 Z_643_4_2
   + 0.4377983723299422 Z_643_4_3 + 0.3931987719008195 Z_643_4_4
   + 0.00640342630774073 Z_643_1_0 + 0.00470515506552048 Z_643_1_1
   + 0.00327573823065904 Z_643_1_2 + 0.1504658338255927 Z_643_1_3
   + 0.735149846570487 Z_643_1_4 + 0.00195881781525795 Z_643_2_0
   + 0.00552719274599359 Z_643_2_1 + 0.0201789843078912 Z_643_2_2
   + 0.0742856610515699 Z_643_2_3 + 0.7980493440792875 Z_643_2_4
   + 1.7410058509114153e-04 Z_643_0_0 + 0.00106820062456862 Z_643_0_1
   + 0.0045407455855694 Z_643_0_2 + 0.0073803198698975 Z_643_0_3
   + 0.8868366333348734 Z_643_0_4 + 0.00224828884193078 Z_62_0_0
   + 0.0614534889255403 Z_62_0_1 + 0.00587954431556344 Z_62_0_2
   + 0.6526941039255167 Z_62_0_3 + 0.1777245739914489 Z_62_0_4
   + 0.00635282196944515 Z_512_0_0 + 0.00996686345879827 Z_512_0_1
   + 0.00489818789652244 Z_512_0_2 + 0.4007435751943348 Z_512_0_3
   + 0.4780385514808993 Z_512_0_4 + 0.00136089900385761 Z_551_0_0
   + 0.00623533855250895 Z_551_0_1 + 0.0125037438668235 Z_551_0_2
   + 0.1822322981012425 Z_551_0_3 + 0.6976677204755676 Z_551_0_4
   + 0.3848854791636749 Z_748_0_0 + 0.0296004661956006 Z_748_0_1
   + 0.00440920865671434 Z_748_0_2 + 0.00262754904185697 Z_748_0_3
   + 0.4784772969421531 Z_748_0_4 + 4.9077818664295162e-04 Z_748_6_0
   + 0.000886549 Z_748_6_1 + 0.8480345281975891 Z_748_6_2
   + 0.00161790640025892 Z_748_6_3 + 0.0489702382769466 Z_748_6_4
   + 0.0241923742314431 Z_748_1_0 + 0.0287099344024042 Z_748_1_1
   + 0.0022922522903131 Z_748_1_2 + 0.7457390451601764 Z_748_1_3
   + 0.0990663939156633 Z_748_1_4 + 8.9632128825638485e-04 Z_579_0_0
   + 0.0997421452446838 Z_579_0_1 + 0.00219448264286 Z_579_0_2
   + 0.6082925121971153 Z_579_0_3 + 0.1888745386270845 Z_579_0_4
   + 0.00104332663503181 Z_414_1_0 + 3.5863171483540657e-04 Z_414_1_1
   + 0.8199352806104768 Z_414_1_2 + 0.00553342943328711 Z_414_1_3
   + 0.0731293316063688 Z_414_1_4 + 0.00690132266560578 Z_414_0_0
   + 0.0827667184567049 Z_414_0_1 + 0.00250777605788189 Z_414_0_2
   + 0.6374292520940383 Z_414_0_3 + 0.1703949307257692 Z_414_0_4
   + 0.0056517291227294 Z_299_0_0 + 0.0167002641928456 Z_299_0_1
   + 0.00957501963087217 Z_299_0_2 + 0.6142463786563362 Z_299_0_3
   + 0.2538266083972166 Z_299_0_4 + 7.6802087426178071e-04 Z_750_0_0
   + 8.6294072526777181e-04 Z_750_0_1 + 0.6960453602839048 Z_750_0_2
   + 0.00197442665847573 Z_750_0_3 + 0.2003492514580897 Z_750_0_4
Subject To
 constraint1_4830: Z_483_0_0 + Z_483_0_1 + Z_483_0_2 + Z_483_0_3
   + Z_483_0_4 <= 1
 constraint1_4831: Z_483_1_0 + Z_483_1_1 + Z_483_1_2 + Z_483_1_3
   + Z_483_1_4 <= 1
 constraint1_4832: Z_483_2_0 + Z_483_2_1 + Z_483_2_2 + Z_483_2_3
   + Z_483_2_4 <= 1
 constraint1_3890: Z_389_0_0 + Z_389_0_1 + Z_389_0_2 + Z_389_0_3
   + Z_389_0_4 <= 1
 constraint1_6433: Z_643_3_0 + Z_643_3_1 + Z_643_3_2 + Z_643_3_3
   + Z_643_3_4 <= 1
 constraint1_6434: Z_643_4_0 + Z_643_4_1 + Z_643_4_2 + Z_643_4_3
   + Z_643_4_4 <= 1
 constraint1_6431: Z_643_1_0 + Z_643_1_1 + Z_643_1_2 + Z_643_1_3
   + Z_643_1_4 <= 1
 constraint1_6432: Z_643_2_0 + Z_643_2_1 + Z_643_2_2 + Z_643_2_3
   + Z_643_2_4 <= 1
 constraint1_6430: Z_643_0_0 + Z_643_0_1 + Z_643_0_2 + Z_643_0_3
   + Z_643_0_4 <= 1
 constraint1_620: Z_62_0_0 + Z_62_0_1 + Z_62_0_2 + Z_62_0_3 + Z_62_0_4
   <= 1
 constraint1_5120: Z_512_0_0 + Z_512_0_1 + Z_512_0_2 + Z_512_0_3
   + Z_512_0_4 <= 1
 constraint1_5510: Z_551_0_0 + Z_551_0_1 + Z_551_0_2 + Z_551_0_3
   + Z_551_0_4 <= 1
 constraint1_7480: Z_748_0_0 + Z_748_0_1 + Z_748_0_2 + Z_748_0_3
   + Z_748_0_4 <= 1
 constraint1_7486: Z_748_6_0 + Z_748_6_1 + Z_748_6_2 + Z_748_6_3
   + Z_748_6_4 <= 1
 constraint1_7481: Z_748_1_0 + Z_748_1_1 + Z_748_1_2 + Z_748_1_3
   + Z_748_1_4 <= 1
 constraint1_5790: Z_579_0_0 + Z_579_0_1 + Z_579_0_2 + Z_579_0_3
   + Z_579_0_4 <= 1
 constraint1_4141: Z_414_1_0 + Z_414_1_1 + Z_414_1_2 + Z_414_1_3
   + Z_414_1_4 <= 1
 constraint1_4140: Z_414_0_0 + Z_414_0_1 + Z_414_0_2 + Z_414_0_3
   + Z_414_0_4 <= 1
 constraint1_2990: Z_299_0_0 + Z_299_0_1 + Z_299_0_2 + Z_299_0_3
   + Z_299_0_4 <= 1
 constraint1_7500: Z_750_0_0 + Z_750_0_1 + Z_750_0_2 + Z_750_0_3
   + Z_750_0_4 <= 1
 constraint2_4830: Z_483_0_0 + Z_483_1_0 + Z_483_2_0 <= 1
 constraint2_4831: Z_483_0_1 + Z_483_1_1 + Z_483_2_1 <= 1
 constraint2_4832: Z_483_0_2 + Z_483_1_2 + Z_483_2_2 <= 1
 constraint2_4833: Z_483_0_3 + Z_483_1_3 + Z_483_2_3 <= 1
 constraint2_3890: Z_389_0_0 <= 1
 constraint2_3891: Z_389_0_1 <= 1
 constraint2_3892: Z_389_0_2 <= 1
 constraint2_3893: Z_389_0_3 <= 1
 constraint2_6430: Z_643_3_0 + Z_643_4_0 + Z_643_1_0 + Z_643_2_0
   + Z_643_0_0 <= 1
 constraint2_6431: Z_643_3_1 + Z_643_4_1 + Z_643_1_1 + Z_643_2_1
   + Z_643_0_1 <= 1
 constraint2_6432: Z_643_3_2 + Z_643_4_2 + Z_643_1_2 + Z_643_2_2
   + Z_643_0_2 <= 1
 constraint2_6433: Z_643_3_3 + Z_643_4_3 + Z_643_1_3 + Z_643_2_3
   + Z_643_0_3 <= 1
 constraint2_620: Z_62_0_0 <= 1
 constraint2_621: Z_62_0_1 <= 1
 constraint2_622: Z_62_0_2 <= 1
 constraint2_623: Z_62_0_3 <= 1
 constraint2_5120: Z_512_0_0 <= 1
 constraint2_5121: Z_512_0_1 <= 1
 constraint2_5122: Z_512_0_2 <= 1
 constraint2_5123: Z_512_0_3 <= 1
 constraint2_5510: Z_551_0_0 <= 1
 constraint2_5511: Z_551_0_1 <= 1
 constraint2_5512: Z_551_0_2 <= 1
 constraint2_5513: Z_551_0_3 <= 1
 constraint2_7480: Z_748_0_0 + Z_748_6_0 + Z_748_1_0 <= 1
 constraint2_7481: Z_748_0_1 + Z_748_6_1 + Z_748_1_1 <= 1
 constraint2_7482: Z_748_0_2 + Z_748_6_2 + Z_748_1_2 <= 1
 constraint2_7483: Z_748_0_3 + Z_748_6_3 + Z_748_1_3 <= 1
 constraint2_5790: Z_579_0_0 <= 1
 constraint2_5791: Z_579_0_1 <= 1
 constraint2_5792: Z_579_0_2 <= 1
 constraint2_5793: Z_579_0_3 <= 1
 constraint2_4140: Z_414_1_0 + Z_414_0_0 <= 1
 constraint2_4141: Z_414_1_1 + Z_414_0_1 <= 1
 constraint2_4142: Z_414_1_2 + Z_414_0_2 <= 1
 constraint2_4143: Z_414_1_3 + Z_414_0_3 <= 1
 constraint2_2990: Z_299_0_0 <= 1
 constraint2_2991: Z_299_0_1 <= 1
 constraint2_2992: Z_299_0_2 <= 1
 constraint2_2993: Z_299_0_3 <= 1
 constraint2_7500: Z_750_0_0 <= 1
 constraint2_7501: Z_750_0_1 <= 1
 constraint2_7502: Z_750_0_2 <= 1
 constraint2_7503: Z_750_0_3 <= 1
Bounds
Binaries
 Z_483_0_0 Z_483_0_1 Z_483_0_2 Z_483_0_3 Z_483_0_4 Z_483_1_0 Z_483_1_1
 Z_483_1_2 Z_483_1_3 Z_483_1_4 Z_483_2_0 Z_483_2_1 Z_483_2_2 Z_483_2_3
 Z_483_2_4 Z_389_0_0 Z_389_0_1 Z_389_0_2 Z_389_0_3 Z_389_0_4 Z_643_3_0
 Z_643_3_1 Z_643_3_2 Z_643_3_3 Z_643_3_4 Z_643_4_0 Z_643_4_1 Z_643_4_2
 Z_643_4_3 Z_643_4_4 Z_643_1_0 Z_643_1_1 Z_643_1_2 Z_643_1_3 Z_643_1_4
 Z_643_2_0 Z_643_2_1 Z_643_2_2 Z_643_2_3 Z_643_2_4 Z_643_0_0 Z_643_0_1
 Z_643_0_2 Z_643_0_3 Z_643_0_4 Z_62_0_0 Z_62_0_1 Z_62_0_2 Z_62_0_3 Z_62_0_4
 Z_512_0_0 Z_512_0_1 Z_512_0_2 Z_512_0_3 Z_512_0_4 Z_551_0_0 Z_551_0_1
 Z_551_0_2 Z_551_0_3 Z_551_0_4 Z_748_0_0 Z_748_0_1 Z_748_0_2 Z_748_0_3
 Z_748_0_4 Z_748_6_0 Z_748_6_1 Z_748_6_2 Z_748_6_3 Z_748_6_4 Z_748_1_0
 Z_748_1_1 Z_748_1_2 Z_748_1_3 Z_748_1_4 Z_579_0_0 Z_579_0_1 Z_579_0_2
 Z_579_0_3 Z_579_0_4 Z_414_1_0 Z_414_1_1 Z_414_1_2 Z_414_1_3 Z_414_1_4
 Z_414_0_0 Z_414_0_1 Z_414_0_2 Z_414_0_3 Z_414_0_4 Z_299_0_0 Z_299_0_1
 Z_299_0_2 Z_299_0_3 Z_299_0_4 Z_750_0_0 Z_750_0_1 Z_750_0_2 Z_750_0_3
 Z_750_0_4
End
